c turning on binary mode checking
c parsing input formula with 932 variables and 2994 clauses
c finished parsing, read 51935359 bytes from proof file
c detected empty clause; start verification via backward checking
c 2534 of 2994 clauses in core                            
c 627542 of 782269 lemmas in core using 55565191 resolution steps
c 0 RAT lemmas in core; 530744 redundant literals in core lemmas
s VERIFIED
c verification time: 189.137 seconds
